# Графен
#
# Расчёт зонной структуры:
# 1. Расчёт плотности (SCF)
# 2. Расчёт зонной структуры (non-SCF)

ndtset 2

# 1. Расчёт самосогласованного поля и соответствующей плотности
kptopt1 1          # автоматическая генерация точек в обратном пространстве
chksymbreak 0      # не реагировать на несоответствие точек и симметрии
ngkpt1 10 10 1     # число точек вдоль каждого из векторов обратной решётки
prtden1  1         # распечатать полученную плотность (нужно для второго этапа)
toldfe1  1.0d-8    # точность по энергии (абсолютная величина)

# 2. Расчёт зонной структуры
iscf2    -2        # плотность будет считываться с диска
getden2  -1        # использовать плотность из предыдущего вычисления

nband2   22        # число рассчитываемых зон
kptopt2  -2        # число линий, вдоль которых считается энергия

ndivk2  50 1 47    # число частей для каждой линии
kptbounds2
0   0 0      # Г
1/2   0 0    # M
  0   0 0    # Г
1/3 1/3 0    # K

enunit2   1        # единицы измерения энергии -- эВ
tolwfr2  1.0d-12   # точность по энергии для non-SCF вычислений

# Параметры примитивной ячейки
acell 2.46 2.46 30 angstrom
rprim
       1          0 0
    -1/2 sqrt(0.75) 0
       0          0 1

# Атомы и их расположение в ячейке
ntypat 1
znucl 6

natom 2
typat 1 1
xred
  0   0 0
2/3 1/3 0


nstep 50 # максимальное число расчётов (если заданная точность так и не достигается)
ecut 40  # максимальная кинетическая энергия (ограничивает число плоских волн)