 &BANDS
    prefix  = 'SiO2',
    outdir = "../temp",
    filband = 'bands.dat',
    no_overlap = .true.,
 /
