&CONTROL
    calculation = 'bands',
    prefix='SiO2',
    pseudo_dir = "../pseudo",
    outdir = "../temp",
/
&SYSTEM
    ibrav=4,
    celldm(1)=9.290,
    celldm(3)=1.1,
    nat=9,
    ntyp=2,
    ecutwfc=70.0,
    nbnd=30,
/
&ELECTRONS
/
ATOMIC_SPECIES
    O  16 O.blyp-hgh.UPF
    Si 28 Si.blyp-hgh.UPF
ATOMIC_POSITIONS (crystal)
    Si 0.4701 0.0000 0.3333333333
    Si 0.0000 0.4701 0.6666666667
    Si -0.4701 -0.4701 0.0000000000
    O 0.4139 0.2674 0.2144
    O -0.2674 0.1465 0.5477333333
    O -0.1465 -0.4139 0.8810666667
    O 0.2674 0.4139 -0.2144
    O 0.1465 -0.2674 0.4522666667
    O -0.4139 -0.1465 0.1189333333
K_POINTS crystal_b
  3
  0.000 0.000 0.000  30   
  0.333 0.333 0.000  15
  0.500 0.000 0.000   1
