 &BANDS
    prefix  = '6H-SiC',
    outdir = "../temp",
    filband = 'bands.dat',
    no_overlap = .true.,
 /
