&CONTROL
    calculation = 'bands',
    prefix='6H-SiC',
    pseudo_dir = "../pseudo",
    outdir = "../temp",
/
&SYSTEM
    ibrav=4,
    celldm(1)=5.818,
    celldm(3)=4.911,
    nat=12,
    ntyp=2,
    ecutwfc=70.0,
    nbnd = 30,
/
&ELECTRONS
/
ATOMIC_SPECIES
    C  12 C.blyp-hgh.UPF
    Si 28 Si.blyp-hgh.UPF
ATOMIC_POSITIONS (crystal)
   Si        0.000000  0.000000  0.000000
   C         0.000000  0.000000  0.125000
   Si        0.333333  0.666667  0.166667
   C         0.333333  0.666667  0.291667
   Si        0.666667  0.333333  0.333333
   C         0.666667  0.333333  0.458333
   Si        0.000000  0.000000  0.500000
   C         0.000000  0.000000  0.625000
   Si        0.666667  0.333333  0.666667
   C         0.666667  0.333333  0.791667
   Si        0.333333  0.666667  0.833333
   C         0.333333  0.666667  0.958333
K_POINTS crystal_b
  3
  0.000 0.000 0.000  30   
  0.333 0.333 0.000  15
  0.500 0.000 0.000   1
