# Crystalline graphene
#
# Computation of the band structure.
# First, a SCF density computation, then a non-SCF band structure calculation.

ndtset 2

#Dataset 1 : usual self-consistent calculation
iscf1 7
kptopt1 1          # Option for the automatic generation of k points,
                   # taking into account the symmetry
prtden1  1         # Print the density, for use by dataset 2
toldfe1  1.0d-8    # This value is way too large for most realistic studies of materials

#Dataset 2 : the band structure
iscf2    -2
getden2  -1
kptopt2  -2

nband2 8
ndivk2 20 10

kptbounds2
0 0 0
1/3 1/3 0
1/2 0 0

tolwfr2  1.0d-12

# Definition of the unit cell
acell 2.46 2.46 500 angstrom
rprim
     1        0     0
    -0.5 sqrt(0.75) 0
     0        0     1

# Definition of the atom types
ntypat 1
znucl 6

natom 2
typat 1 1
xred
0 0 0
2/3 1/3 0

ecut 12

# SCF definition
nstep 20
diemac 12.0
optforces 1
