# 6H-SiC

# Параметры примитивной ячейки
acell 3.079 3.079 15.12 angstrom
rprim
       1          0  0
    -1/2 sqrt(0.75)  0
       0          0  1

# Атомы и их расположение в ячейке
ntypat 2
znucl 6 14

natom 12
typat 1 2 1 2 1 2 1 2 1 2 1 2
xred
  0    0  1/8   # C     A
  0    0    0   # Si 
1/3  2/3  7/24  # C     B
1/3  2/3  1/6   # Si
2/3  1/3  11/24 # C     C
2/3  1/3  1/3   # Si
  0    0  5/8   # C     A
  0    0  1/2   # Si
2/3  1/3  19/24 # C     C
2/3  1/3  2/3   # Si
1/3  2/3  23/24 # C     B
1/3  2/3  5/6   # Si

# Расчёт зонной структуры:
# 1. Расчёт плотности (SCF)
# 2. Расчёт зонной структуры (non-SCF)
ndtset 2

# 1. Расчёт самосогласованного поля и соответствующей плотности
kptopt1 1          # автоматическая генерация точек в обратном пространстве
nshiftk1 1
shiftk1 0.0 0.0 0.5
ngkpt1 8 8 8       # число точек вдоль каждого из векторов обратной решётки
prtden1  1         # распечатать полученную плотность (нужно для второго этапа)
toldfe1  1.0d-6    # точность по энергии (абсолютная величина)

# 2. Расчёт зонной структуры
iscf2    -2        # плотность будет считываться с диска
getden2  -1        # использовать плотность из предыдущего вычисления

nband2   30        # число рассчитываемых зон
kptopt2  -2        # число линий, вдоль которых считается энергия

ndivk2  30 15    # число частей для каждой линии
kptbounds2
0   0 0      # Г
1/3 1/3 0    # K
1/2   0 0    # M

enunit2   1        # единицы измерения энергии -- эВ
tolwfr2  1.0d-8   # точность по энергии для non-SCF вычислений

nstep 50 # максимальное число расчётов (если заданная точность так и не достигается)
ecut 40  # максимальная кинетическая энергия (ограничивает число плоских волн)
