# Графен между слоями h-BN
# Параметры примитивной ячейки
acell 2.46 2.46 50 angstrom
rprim
       1          0 0
    -1/2 sqrt(0.75) 0
       0          0 1

# Атомы и их расположение в ячейке
ntypat 3
znucl 6 5 7

natom 6
typat 1 1 2 3 2 3
xangst
   0     0    0  # C
1.23  0.71    0  # C
1.23  0.71  3.3  # B
   0  1.42  3.3  # N
1.23  0.71 -3.3  # B
   0  1.42 -3.3  # N


# Расчёт зонной структуры:
# 1. Расчёт плотности (SCF)
# 2. Расчёт зонной структуры (non-SCF)

ndtset 2

# 1. Расчёт самосогласованного поля и соответствующей плотности
kptopt1 1          # автоматическая генерация точек в обратном пространстве
chksymbreak 0      # не реагировать на несоответствие точек и симметрии
ngkpt1 16 16 1     # число точек вдоль каждого из векторов обратной решётки
prtden1  1         # распечатать полученную плотность (нужно для второго этапа)
toldfe1  1.0d-8    # точность по энергии (абсолютная величина)

# 2. Расчёт зонной структуры
iscf2    -2        # плотность будет считываться с диска
getden2  -1        # использовать плотность из предыдущего вычисления

nband2   22        # число рассчитываемых зон
kptopt2  -2        # число линий, вдоль которых считается энергия

ndivk2  60 30    # число частей для каждой линии
kptbounds2
0   0 0      # Г
1/3 1/3 0    # K
1/2   0 0    # M

enunit2   1        # единицы измерения энергии -- эВ
tolwfr2  1.0d-12   # точность по энергии для non-SCF вычислений

nstep 50 # максимальное число расчётов (если заданная точность так и не достигается)
ecut 40  # максимальная кинетическая энергия (ограничивает число плоских волн)
