# SiO2

# Параметры примитивной ячейки
acell 4.9138 4.9138 5.4052 angstrom
rprim
       1          0  0
    -0.5  0.8660254  0
       0          0  1

# Атомы и их расположение в ячейке
ntypat 2
znucl 14 8

natom 9
typat 1 1 1 2 2 2 2 2 2
xred
    0.4701  0.0000  0.3333333333
    0.0000  0.4701  0.6666666667
   -0.4701 -0.4701  0.0000000000
    0.4139  0.2674  0.2144
   -0.2674  0.1465  0.5477333333
   -0.1465 -0.4139  0.8810666667
    0.2674  0.4139 -0.2144
    0.1465 -0.2674  0.4522666667
   -0.4139 -0.1465  0.1189333333

# Расчёт зонной структуры:
# 1. Расчёт плотности (SCF)
# 2. Расчёт зонной структуры (non-SCF)
ndtset 2

# 1. Расчёт самосогласованного поля и соответствующей плотности
kptopt1 1          # автоматическая генерация точек в обратном пространстве
nshiftk1 1
shiftk1 0.0 0.0 0.5
ngkpt1 8 8 8
prtden1  1         # распечатать полученную плотность (нужно для второго этапа)
toldfe1  1.0d-12    # точность по энергии (абсолютная величина)

# 2. Расчёт зонной структуры
iscf2    -2        # плотность будет считываться с диска
getden2  -1        # использовать плотность из предыдущего вычисления

nband2   30        # число рассчитываемых зон
kptopt2  -2        # число линий, вдоль которых считается энергия

ndivk2  30 15    # число частей для каждой линии
kptbounds2
0   0 0      # Г
1/3 1/3 0    # K
1/2   0 0    # M

enunit2   1        # единицы измерения энергии -- эВ
tolwfr2  1.0d-12   # точность по энергии для non-SCF вычислений

nstep 100 # максимальное число расчётов (если заданная точность так и не достигается)
ecut 40  # максимальная кинетическая энергия (ограничивает число плоских волн)
