&CONTROL
    calculation = 'scf',
    prefix='graphene',
    pseudo_dir = "./pseudo",
    outdir = "./temp",
/
&SYSTEM
    ibrav=0,
    celldm(1)=4.6595,
    nat=2,
    ntyp=1,
    ecutwfc=70.0,
/
&ELECTRONS
/
ATOMIC_SPECIES
    C 12 C.pbe-rrkjus.UPF
CELL_PARAMETERS
    1.0 0.0 0.0
    -0.5 0.8660254 0.0
    0.0 0.0 12.0
ATOMIC_POSITIONS (crystal)
   C        0.000000000   0.000000000   0.000000000
   C        0.666666666   0.333333333   0.000000000
K_POINTS {Automatic}
   16 16 1 0 0 0
