&CONTROL
    calculation = 'scf',
    restart_mode='from_scratch',
    prefix='graphene',
    pseudo_dir = "/home/eli/docs/quantum espresso/graphene/pseudo",
    outdir = "/home/eli/docs/quantum espresso/graphene/temp",
/
&SYSTEM
    ibrav=0,
    celldm(1)=4.6595,
    nat=2,
    ntyp=1,
    ecutwfc=70.0,
    ecutrho=560.0,
    occupations='smearing',
    smearing='gaussian',
    degauss=0.01,
    nbnd = 8,
/
&ELECTRONS
    diagonalization='david'
    electron_maxstep = 100
    mixing_mode = 'plain'
    mixing_beta = 0.7
    conv_thr = 1.0d-8
/
ATOMIC_SPECIES
    C 12.000 C.pbe-rrkjus.UPF
CELL_PARAMETERS
    1.0 0.0 0.0
    -0.5 0.8660254 0.0
    0.0 0.0 12.0
ATOMIC_POSITIONS (crystal)
   C        0.000000000   0.000000000   0.000000000
   C        0.666666666   0.333333333   0.000000000
K_POINTS {Automatic}
   16 16 1 0 0 0
