&CONTROL
    calculation = 'bands',
    restart_mode='from_scratch',
    prefix='graphene',
    pseudo_dir = "/home/eli/docs/quantum espresso/graphene/pseudo",
    outdir = "/home/eli/docs/quantum espresso/graphene/temp",
/
&SYSTEM
    ibrav=0,
    celldm(1)=4.6595,
    nat=2,
    ntyp=1,
    ecutwfc=12.0,
    nbnd = 8,
/
&ELECTRONS
/
ATOMIC_SPECIES
    C 12.000 C.pbe-rrkjus.UPF
CELL_PARAMETERS
    1.0 0.0 0.0
    -0.5 0.8660254 0.0
    0.0 0.0 12.0
ATOMIC_POSITIONS (crystal)
   C        0.000000000   0.000000000   0.000000000
   C        0.666666666   0.333333333   0.000000000
K_POINTS
    31
    0.0 0.0 0 1
    0.016666666666666666 0.016666666666666666 0 1
    0.03333333333333333 0.03333333333333333 0 1
    0.05 0.05 0 1
    0.06666666666666667 0.06666666666666667 0 1
    0.08333333333333333 0.08333333333333333 0 1
    0.1 0.1 0 1
    0.11666666666666667 0.11666666666666667 0 1
    0.13333333333333333 0.13333333333333333 0 1
    0.15 0.15 0 1
    0.16666666666666666 0.16666666666666666 0 1
    0.18333333333333332 0.18333333333333332 0 1
    0.2 0.2 0 1
    0.21666666666666667 0.21666666666666667 0 1
    0.23333333333333334 0.23333333333333334 0 1
    0.25 0.25 0 1
    0.26666666666666666 0.26666666666666666 0 1
    0.2833333333333333 0.2833333333333333 0 1
    0.3 0.3 0 1
    0.31666666666666665 0.31666666666666665 0 1
    0.3333333333333333 0.3333333333333333 0 1
    0.35 0.3 0 1
    0.36666666666666664 0.26666666666666666 0 1
    0.3833333333333333 0.2333333333333333 0 1
    0.39999999999999997 0.19999999999999998 0 1
    0.41666666666666663 0.16666666666666666 0 1
    0.43333333333333335 0.1333333333333333 0 1
    0.44999999999999996 0.09999999999999998 0 1
    0.4666666666666667 0.06666666666666665 0 1
    0.4833333333333333 0.033333333333333326 0 1
    0.5 0.0 0 1
