 &BANDS
    prefix  = 'SiC',
    outdir = "./temp",
    filband = 'bands.dat',
 /
