SystemName          graphene
SystemLabel         graphene

NumberOfAtoms          2
NumberOfSpecies        1

%block ChemicalSpeciesLabel
  1   6  C
%endblock ChemicalSpeciesLabel


%block PAO.Basis                 # Define Basis set
C     3      0.01
 n=2    0    2   E     69.86      4.68
   6.004   4.195
   1.000   1.000
 n=2    1    2   E     18.95      3.78
   4.995   3.100
   1.000   1.000
 n=3    2    1   E     16.84      0.05
   4.187
   1.000
#C           2                    # Species label, number of l-shells
# n=2   0   1                         # n, l, Nzeta
#   4.088    
#   1.000    
# n=2   1   1                       # n, l, Nzeta, Polarization, NzetaPol
#   4.870      
#   1.000      
%endblock PAO.Basis

XC.functional GGA
XC.authors    PBE
 
LatticeConstant     2.46 Ang 
%block LatticeVectors
   1.000000000        0.0000000000        0.0000000000
   -0.50000000        0.8660254038        0.0000000000
   0.000000000        0.0000000000        10.000000000
%endblock LatticeVectors

AtomicCoordinatesFormat Fractional 
%block AtomicCoordinatesAndAtomicSpecies
   0.0   0.0   0.0  1
   0.66666666666666   0.3333333333333   0.0  1
%endblock AtomicCoordinatesAndAtomicSpecies

%block kgrid_Monkhorst_Pack
   20  0  0  0.0
   0   20 0  0.0
   0   0  1  0.0
%endblock Kgrid_Monkhorst_Pack

MeshCutoff         100.0 Ry

MaxSCFIterations     500
DM.MixingWeight      0.2
DM.NumberPulay       5
DM.Tolerance         1.d-4

WriteCoorXmol .true.

BandLinesScale ReciprocalLatticeVectors

%block BandLines
1  0.5 0.0 0.0 M
47 0.0 0.0 0.0 \Gamma
50 0.333 0.333 0.0 K
%endblock BandLines


SolutionMethod       diagon


SolutionMethod   diagon
TS.WriteHS  .true.
