Graphene elph
&inputph
  tr2_ph=1.0d-10,
  prefix='graphene',
  fildvscf='graphenedv',
  amass(1)=12,
  outdir='./temp/',
  fildyn='graphene.dyn',
  !elph=.true., <- в примере есть, но с ней не запускается даже
  trans=.true.,
  ldisp=.true.,
  nq1=4, nq2=4, nq3=1
/
