&control
    calculation='scf'
    restart_mode='from_scratch',
    prefix='graphene',
    pseudo_dir = './pseudo/',
    outdir='./temp/'
/
&SYSTEM
    ibrav=0,
    celldm(1)=4.6595,
    nat=2,
    ntyp=1,
    ecutwfc=70.0,
/
&electrons
conv_thr =  1.0d-8
mixing_beta = 0.7
/
ATOMIC_SPECIES
    C 12 C.pbe-rrkjus.UPF
CELL_PARAMETERS
    1.0 0.0 0.0
    -0.5 0.8660254 0.0
    0.0 0.0 12.0
ATOMIC_POSITIONS (crystal)
   C        0   0   0
   C        0.6666666 0.3333333 0
K_POINTS {automatic}
8 8 1  0 0 0